61
100
80	5
79	8
78	3
77	6
76	4
75	7
74	4
73	3
72	3
71	2
70	2
69	3
68	6
67	7
66	4
65	2
64	7
63	5
62	7
61	5
60	3
59	4
58	6
57	6
56	4
55	7
54	4
53	2
52	4
51	6
50	2
49	7
48	9
47	9
46	2
45	7
44	4
43	5
42	7
41	5
40	8
39	4
38	9
37	4
36	4
35	5
34	5
33	6
32	4
31	3
30	4
29	2
28	8
27	6
26	6
25	5
24	3
23	4
22	2
21	8
20	4
